(declare-const havoc Int)
(declare-const |i':38:47:52| Int)
(declare-const |phi_i:37:48:53| Int)
(declare-const |phi_c:36:49:54| Int)
(declare-const |K:44:45:50| Int)
(declare-const |c':39:46:51| Int)
(declare-const |havoc:2| Int)
(assert (and (= |havoc:2| 0) (= havoc 0)
               (or (not (<= (- |K:44:45:50|) 0))
                     (= (+ (* 2 |c':39:46:51|)
                             (- (* |K:44:45:50| |K:44:45:50|)) |K:44:45:50|
                             (* -2 (* |K:44:45:50| havoc)) (* -2 |havoc:2|)) 0))
               (or (not (<= (- |K:44:45:50|) 0))
                     (= (+ |i':38:47:52| (- |K:44:45:50|) (- havoc)) 0))
               (or (not (<= (- |K:44:45:50|) 0))
                     (<= (+ |c':39:46:51| (* -99 |K:44:45:50|) (- |havoc:2|)) 0))
               (or (not (<= (- |K:44:45:50|) 0))
                     (<= (+ (- |c':39:46:51|) |havoc:2|) 0))
               (or (and (= |K:44:45:50| 0)
                          (= (+ (- |c':39:46:51|) |havoc:2|) 0)
                          (= (+ (- |i':38:47:52|) havoc) 0))
                     (and (<= (+ (- |K:44:45:50|) 1) 0) (<= (+ havoc -99) 0)
                            (<= (- |havoc:2|) 0) (<= (- havoc) 0)
                            (<= (+ |i':38:47:52| -100) 0)
                            (<= (+ |i':38:47:52| (- |c':39:46:51|) -1) 0)
                            (<= (+ (- |i':38:47:52|) 1) 0)))
               (<= (- |K:44:45:50|) 0) (<= (- |c':39:46:51|) 0)
               (<= (- |i':38:47:52|) 0)
               (or (and (< (+ |i':38:47:52| -100) 0)
                          (<= (+ |i':38:47:52| 1) 0)
                          (= (+ (- |phi_i:37:48:53|) |i':38:47:52| 1) 0)
                          (= (+ (- |phi_c:36:49:54|) |i':38:47:52|
                                  |c':39:46:51|) 0))
                     (and (<= (+ (- |i':38:47:52|) 100) 0)
                            (= (+ (- |phi_i:37:48:53|) |i':38:47:52|) 0)
                            (= (+ (- |phi_c:36:49:54|) |c':39:46:51|) 0)))
               (not (<= (- |phi_c:36:49:54|) 0))))
(check-sat)
